100
1000
389
360
309
328
366
331
392
301
313
301
374
316
392
353
345
311
317
329
388
348
302
391
337
370
322
340
396
362
315
328
356
399
309
356
306
352
337
373
321
310
379
381
376
385
368
319
324
316
313
324
335
397
383
385
343
377
343
344
317
385
362
334
342
336
311
335
344
392
312
377
335
345
377
316
329
315
344
375
347
317
309
366
337
349
369
350
313
349
332
373
323
337
364
376
376
323
311
301
394
326
